NAME: rue_15_2
TYPE: TSP
DIMENSION: 15
EDGE_WEIGHT_TYPE: EUC_2D
NODE_COORD_SECTION
1 14 1
2 18 36
3 26 26
4 4 13
5 4 37
6 19 36
7 14 2
8 36 3
9 17 6
10 25 5
11 14 36
12 32 8
13 29 38
14 26 27
15 21 7

